
Gurobi 9.0.2 (linux64) logging started Mon May 25 08:58:53 2020

Changed value of parameter LogFile to gurobi_logs/2020-05-25_08:58:53-rproblem8_implicit_mode=optimality_no_sdp.log
   Prev:   Default: 
Parameter MIPFocus unchanged
   Value: 0  Min: 0  Max: 3  Default: 0
Parameter SolutionLimit unchanged
   Value: 2000000000  Min: 1  Max: 2000000000  Default: 2000000000
Parameter LogToConsole unchanged
   Value: 1  Min: 0  Max: 1  Default: 1
Changed value of parameter TimeLimit to 18000.0
   Prev: inf  Min: 0.0  Max: inf  Default: inf
Gurobi Optimizer version 9.0.2 build v9.0.2rc0 (linux64)
Optimize a model with 8135 rows, 6486 columns and 188899 nonzeros
Model fingerprint: 0x80617351
Variable types: 41 continuous, 6445 integer (5941 binary)
Coefficient statistics:
  Matrix range     [3e-01, 9e+01]
  Objective range  [1e+00, 1e+00]
  Bounds range     [1e+00, 1e+00]
  RHS range        [1e+00, 9e+01]
Presolve removed 4687 rows and 2501 columns
Presolve time: 0.53s
Presolved: 3448 rows, 3985 columns, 47170 nonzeros
Variable types: 1 continuous, 3984 integer (3971 binary)

Root relaxation: objective 5.302242e+02, 1041 iterations, 0.05 seconds

    Nodes    |    Current Node    |     Objective Bounds      |     Work
 Expl Unexpl |  Obj  Depth IntInf | Incumbent    BestBd   Gap | It/Node Time

     0     0  530.22422    0  116          -  530.22422      -     -    0s
     0     0  530.22422    0  172          -  530.22422      -     -    0s
     0     0  530.22422    0  155          -  530.22422      -     -    0s
     0     0  528.74803    0  117          -  528.74803      -     -    1s
     0     0  528.54675    0  188          -  528.54675      -     -    1s
     0     0  528.54609    0  162          -  528.54609      -     -    1s
     0     0  528.54609    0  171          -  528.54609      -     -    1s
     0     0  528.53616    0  252          -  528.53616      -     -    1s
     0     0  528.22154    0  240          -  528.22154      -     -    1s
     0     0  528.21410    0  279          -  528.21410      -     -    1s
     0     0  528.21410    0  245          -  528.21410      -     -    1s
     0     0  528.03052    0  278          -  528.03052      -     -    1s
     0     0  528.03052    0  265          -  528.03052      -     -    1s
     0     0  527.98420    0  286          -  527.98420      -     -    2s
     0     0  527.98420    0  267          -  527.98420      -     -    2s
     0     0  527.81282    0  273          -  527.81282      -     -    2s
     0     0  527.80780    0  279          -  527.80780      -     -    2s
     0     0  527.80780    0  269          -  527.80780      -     -    2s
     0     0  527.69526    0  272          -  527.69526      -     -    2s
     0     0  527.69287    0  295          -  527.69287      -     -    2s
     0     0  527.66431    0  269          -  527.66431      -     -    2s
     0     0  527.66431    0  289          -  527.66431      -     -    2s
     0     0  527.60953    0  273          -  527.60953      -     -    2s
     0     0  527.60953    0  309          -  527.60953      -     -    2s
     0     0  527.60952    0  285          -  527.60952      -     -    2s
     0     0  527.60952    0  230          -  527.60952      -     -    2s
     0     0  527.46701    0  226          -  527.46701      -     -    3s
     0     0  527.46701    0  212          -  527.46701      -     -    3s
     0     0  527.46701    0  222          -  527.46701      -     -    3s
     0     0  527.46701    0  200          -  527.46701      -     -    3s
     0     0  527.46701    0  147          -  527.46701      -     -    3s
     0     0  527.46701    0  197          -  527.46701      -     -    3s
     0     0  527.46701    0  177          -  527.46701      -     -    3s
     0     0  527.46701    0  177          -  527.46701      -     -    3s
     0     2  527.46701    0  173          -  527.46701      -     -    5s
  3896  4063  525.78747  118  258          -  527.46701      -  65.2   10s
  4920  4872  525.10892  167  218          -  527.46701      -  61.4   16s
 12794 11714  525.29193   67  177          -  527.46701      -  54.0   23s
 12796 11715  496.07678  256  140          -  527.46701      -  54.0   29s
 12797 11716  526.02779   52  132          -  527.30118      -  53.9   30s
 12798 11717  513.67888  146  187          -  526.61589      -  53.9   36s
 12800 11718  434.17812  538  217          -  521.35176      -  53.9   41s
 12802 11719  521.09971   67  294          -  521.09971      -  53.9   46s
H12802 11132                     504.4085813  520.87381  3.26%  53.9   47s
H12802 10576                     505.8942956  520.87381  2.96%  53.9   47s
H12802 10047                     510.8942956  520.87381  1.95%  53.9   47s
H12803  9545                     512.9192956  520.71672  1.52%  53.9   51s
H12803  9068                     513.2526289  520.71672  1.45%  53.9   51s
 12807  9072  520.71672   88  177  513.25263  520.71672  1.45%  54.8   55s
 12823  9083  513.25263  279  283  513.25263  520.71672  1.45%  54.8   60s
 12840  9094  520.17381   88  292  513.25263  520.17381  1.35%  54.7   65s
H12853  8647                     514.4138902  520.06277  1.10%  54.6   68s
H12856  8215                     518.4192956  520.05871  0.32%  54.6   69s
 12862  8219  519.97728   34  290  518.41930  519.97728  0.30%  54.6   70s
 12882  8233  519.73434   78  268  518.41930  519.73434  0.25%  56.0   75s
H12888  7824                     519.0526289  519.72333  0.13%  55.9   76s
 12904  7835  519.05263  403  249  519.05263  519.60716  0.11%  55.9   80s

Cutting planes:
  Gomory: 6
  Cover: 1
  MIR: 6
  StrongCG: 1
  Flow cover: 11
  GUB cover: 1
  Zero half: 7
  RLT: 9

Explored 12927 nodes (753290 simplex iterations) in 83.84 seconds
Thread count was 24 (of 48 available processors)

Solution count 10: 519.053 519.053 518.419 ... 504.409

Optimal solution found (tolerance 1.00e-04)
Best objective 5.190526288894e+02, best bound 5.190526289512e+02, gap 0.0000%
